1 51 2
-792 -183 -220 -823 -474 -694 -792 -749 -848 -287 -302 -348 -405 -610 -125 -594 -814 -135 -356 -378 -649 -300 -543 -170 -188 -677 -540 -286 -483 -602 -589 -134 -499 -421 -67 -409 -176 -305 -949 -923 -942 -385 -85 -163 -378 -273 -11 -710 -733 -609 0 
-250 -717 -742 -196 -489 -235 -273 -284 -190 -737 -789 -640 -622 -321 -825 -418 -241 -869 -666 -547 -431 -654 -375 -852 -888 -421 -474 -700 -448 -442 -489 -767 -579 -531 -976 -498 -862 -711 -16 -54 -156 -532 -923 -840 -717 -820 -998 -235 -297 -421 0 
250 43 794 488 151 863 844 681 383 219 827 137 355 932 893 177 432 288 561 514 908 619 831 619 732 898 400 696 859 344 16 404 8 99 275 574 439 995 650 31 472 979 295 114 249 720 840 267 861 642 1 
12834 
